p cnf 11 20
-11 -10 -5 0
11 10 -2 0
11 9 1 0
11 -9 -1 0
11 -7 2 0
-10 9 8 0
-10 -9 -2 0
10 9 -1 0
10 7 -3 0
-10 6 3 0
10 -5 -1 0
-10 -2 1 0
9 6 5 0
9 -3 -1 0
9 2 1 0
8 7 -3 0
-7 6 -4 0
7 4 2 0
-6 5 -2 0
5 -4 2 0
